p cnf 12 61 
c Factors encoded in variables 1-6 and 7-12
c Target number: 2501
c Factors: 61 x 41
5 -4 -3 11 -9 8 0
5 -3 -2 -11 9 0
5 3 11 0
5 11 -8 0
5 -11 9 8 0
5 -2 -11 0
4 3 2 0
5 2 11 -8 0
4 -3 -2 8 0
5 -4 11 8 0
-5 -4 -9 8 0
5 4 3 2 -8 0
4 -3 -2 0
4 2 -8 0
-5 4 3 -11 9 8 0
-5 4 -3 2 -11 -9 0
5 4 3 2 9 0
10 0
1 0
5 4 11 0
2 -8 0
-5 -4 -11 0
-5 -4 -3 -9 8 0
5 -4 -11 -8 0
-5 3 -2 -9 0
-5 4 2 9 0
-2 -11 -9 -8 0
4 3 -11 0
5 4 -11 0
-4 11 -9 0
5 4 3 9 0
-4 -3 -9 8 0
5 -4 -3 2 11 0
-5 -4 -3 2 -9 0
4 3 11 0
4 9 8 0
-5 -2 11 0
7 0
-3 -9 0
-3 2 -11 -9 0
12 0
5 -2 11 8 0
5 -4 -3 2 11 -9 0
-3 -2 11 9 -8 0
5 11 9 0
-5 -4 -11 9 8 0
5 -4 -3 -2 11 -9 0
-5 -4 -11 9 0
5 -4 3 2 11 -9 0
-2 8 0
3 -2 0
3 2 11 0
-5 4 11 0
5 4 3 9 8 0
6 0
4 -9 -8 0
-5 4 -2 -11 0
3 9 0
-2 -8 0
2 9 -8 0
-5 -4 -2 -11 -8 0
